tsp_instances/TSP50/instance21.tsp
NODE_COORD_SECTION
0 29 188
1 63 162
2 199 150
3 99 15
4 64 20
5 115 74
6 90 188
7 101 162
8 132 103
9 23 170
10 139 185
11 173 17
12 125 123
13 93 56
14 112 4
15 98 33
16 105 14
17 198 43
18 92 89
19 85 126
20 84 109
21 5 93
22 25 187
23 41 152
24 157 84
25 189 153
26 133 101
27 66 68
28 101 48
29 176 170
30 129 195
31 91 156
32 199 170
33 25 168
34 65 158
35 192 84
36 53 146
37 180 59
38 16 3
39 165 106
40 158 198
41 7 105
42 22 67
43 138 56
44 176 73
45 116 152
46 185 24
47 181 31
48 22 133
49 101 162
