tsp_instances/TSP50/instance21.opt.tour
TOUR_SECTION
1
23
10
34
49
42
22
43
39
5
4
15
17
16
29
14
28
19
21
20
32
8
50
46
13
9
27
6
44
12
47
48
18
38
45
36
25
40
26
3
33
30
41
11
31
7
2
35
37
24
-1